7588
2932
3319
7283
631
5518
8647
3482
10155
2661
6186
1413
3670
2129
1313
6148
8410
4672
9677
5292
3320
1367
9929
7305
866
2906
5388
6988
4872
7268
9430
9185
8066
3220
2860
3559
9318
6660
6774
3639
9311
5409
9286
3292
5280
926
8958
8855
9905
1394
8523
